c pcminimize - minimizing a CNF with respect to propagation completeness by iterative removing of absorbed clauses.
c Petr Kucera, 2016-2021
c Version 2.7, revision 59, git hash 4910a71, date 2024-07-16 20:17:42 +0200
p cnf 425 1437
-32 -344 0
-33 -344 0
35 -344 0
40 -344 0
44 -344 0
-47 -344 0
-51 -344 0
53 -344 0
-58 -344 0
59 -344 0
-60 -344 0
74 -344 0
-75 -344 0
-93 -344 0
-95 -344 0
96 -344 0
100 -344 0
-101 -344 0
-103 -344 0
-107 -344 0
-108 -344 0
109 -344 0
-122 -344 0
-123 -344 0
124 -344 0
130 -344 0
-131 -344 0
-132 -344 0
-139 -344 0
-143 -344 0
145 -344 0
146 -344 0
-151 -344 0
156 -344 0
-157 -344 0
-167 -344 0
170 -344 0
173 -344 0
-177 -344 0
-184 -344 0
185 -344 0
-193 -344 0
-194 -344 0
199 -344 0
201 -344 0
-206 -344 0
-213 -344 0
214 -344 0
-217 -344 0
-219 -344 0
-221 -344 0
224 -344 0
227 -344 0
-231 -344 0
233 -344 0
-234 -344 0
-239 -344 0
-247 -344 0
-248 -344 0
252 -344 0
-258 -344 0
-260 -344 0
263 -344 0
-266 -344 0
267 -344 0
-279 -344 0
280 -344 0
286 -344 0
-287 -344 0
-291 -344 0
302 -344 0
-303 -344 0
310 -344 0
334 -344 0
344 -345 0
326 -345 0
-34 -346 0
-55 -346 0
-66 -346 0
69 -346 0
-175 -346 0
-195 -346 0
207 -346 0
-210 -346 0
345 -347 0
346 -347 0
347 -348 0
-327 -348 0
-42 -349 0
-77 -349 0
-87 -349 0
-88 -349 0
-89 -349 0
-316 -349 0
318 -349 0
-332 -349 0
348 -350 0
349 -350 0
350 -351 0
90 -351 0
351 -352 0
-180 -353 0
-226 -353 0
-272 -353 0
-274 -353 0
-278 -353 0
352 -354 0
353 -354 0
354 -355 0
271 -355 0
-32 -356 0
-33 -356 0
-34 -356 0
35 -356 0
40 -356 0
-42 -356 0
-44 -356 0
45 -356 0
-47 -356 0
51 -356 0
-53 -356 0
-55 -356 0
-58 -356 0
60 -356 0
-66 -356 0
69 -356 0
-74 -356 0
75 -356 0
-77 -356 0
-88 -356 0
90 -356 0
-93 -356 0
-95 -356 0
96 -356 0
-100 -356 0
101 -356 0
-103 -356 0
107 -356 0
-108 -356 0
-109 -356 0
122 -356 0
-123 -356 0
-124 -356 0
-130 -356 0
131 -356 0
-132 -356 0
-139 -356 0
-143 -356 0
145 -356 0
146 -356 0
-151 -356 0
-156 -356 0
157 -356 0
-167 -356 0
-170 -356 0
171 -356 0
-175 -356 0
177 -356 0
-194 -356 0
-195 -356 0
199 -356 0
201 -356 0
-206 -356 0
207 -356 0
-210 -356 0
-213 -356 0
214 -356 0
219 -356 0
-221 -356 0
-233 -356 0
234 -356 0
-239 -356 0
-247 -356 0
-248 -356 0
252 -356 0
-260 -356 0
263 -356 0
-266 -356 0
267 -356 0
278 -356 0
-280 -356 0
287 -356 0
-291 -356 0
302 -356 0
-303 -356 0
310 -356 0
334 -356 0
356 -357 0
326 -357 0
357 -358 0
358 -359 0
-87 -360 0
-89 -360 0
-173 -360 0
180 -360 0
-184 -360 0
-193 -360 0
-217 -360 0
-224 -360 0
-226 -360 0
-227 -360 0
231 -360 0
-258 -360 0
272 -360 0
-274 -360 0
-279 -360 0
-286 -360 0
-316 -360 0
-327 -360 0
-332 -360 0
359 -361 0
360 -361 0
361 -362 0
318 -362 0
-32 -363 0
33 -363 0
-34 -363 0
-44 -363 0
-47 -363 0
48 -363 0
51 -363 0
-53 -363 0
-55 -363 0
-58 -363 0
60 -363 0
-74 -363 0
-75 -363 0
77 -363 0
-93 -363 0
95 -363 0
-100 -363 0
101 -363 0
107 -363 0
-108 -363 0
-109 -363 0
122 -363 0
-123 -363 0
-124 -363 0
-130 -363 0
-131 -363 0
132 -363 0
139 -363 0
-143 -363 0
-145 -363 0
-146 -363 0
151 -363 0
-156 -363 0
157 -363 0
170 -363 0
-173 -363 0
175 -363 0
-177 -363 0
193 -363 0
-195 -363 0
-199 -363 0
206 -363 0
-213 -363 0
214 -363 0
-217 -363 0
-221 -363 0
224 -363 0
-234 -363 0
239 -363 0
247 -363 0
-248 -363 0
-252 -363 0
258 -363 0
-263 -363 0
264 -363 0
-266 -363 0
-278 -363 0
-279 -363 0
280 -363 0
-286 -363 0
-287 -363 0
291 -363 0
-302 -363 0
-303 -363 0
306 -363 0
-310 -363 0
311 -363 0
323 -363 0
331 -363 0
-332 -363 0
-334 -363 0
363 -364 0
-327 -364 0
364 -365 0
-35 -366 0
42 -366 0
66 -366 0
-69 -366 0
-87 -366 0
89 -366 0
-90 -366 0
-96 -366 0
-103 -366 0
-167 -366 0
-180 -366 0
181 -366 0
-194 -366 0
-201 -366 0
-207 -366 0
210 -366 0
-219 -366 0
226 -366 0
-227 -366 0
-231 -366 0
-233 -366 0
-260 -366 0
-267 -366 0
274 -366 0
365 -367 0
366 -367 0
367 -368 0
-40 -369 0
-88 -369 0
-184 -369 0
-272 -369 0
-316 -369 0
-326 -369 0
368 -370 0
369 -370 0
370 -371 0
319 -371 0
371 -372 0
-318 -372 0
362 372 -373 0
373 -374 0
-271 -374 0
-153 -376 0
-246 -376 0
-308 -376 0
-340 -376 0
375 -377 0
376 -377 0
336 -378 0
32 -379 0
-33 -379 0
47 -379 0
51 -379 0
-53 -379 0
-96 -379 0
97 -379 0
103 -379 0
124 -379 0
130 -379 0
-131 -379 0
-132 -379 0
139 -379 0
-143 -379 0
-145 -379 0
-146 -379 0
-151 -379 0
152 -379 0
-175 -379 0
179 -379 0
195 -379 0
-199 -379 0
-221 -379 0
224 -379 0
235 -379 0
263 -379 0
266 -379 0
-278 -379 0
279 -379 0
-280 -379 0
285 -379 0
-286 -379 0
-287 -379 0
-291 -379 0
303 -379 0
308 -379 0
-310 -379 0
327 -379 0
332 -379 0
-334 -379 0
379 -380 0
-44 -380 0
-34 -381 0
-35 -381 0
-40 -381 0
41 -381 0
-42 -381 0
-55 -381 0
-58 -381 0
-60 -381 0
63 -381 0
66 -381 0
-69 -381 0
74 -381 0
-75 -381 0
-77 -381 0
-87 -381 0
88 -381 0
-89 -381 0
-90 -381 0
-93 -381 0
-95 -381 0
-100 -381 0
-101 -381 0
107 -381 0
-108 -381 0
-109 -381 0
-122 -381 0
-123 -381 0
-153 -381 0
156 -381 0
-157 -381 0
-167 -381 0
170 -381 0
-173 -381 0
-177 -381 0
180 -381 0
-184 -381 0
-193 -381 0
-194 -381 0
-206 -381 0
-207 -381 0
210 -381 0
213 -381 0
-214 -381 0
-217 -381 0
-219 -381 0
-226 -381 0
-227 -381 0
-231 -381 0
232 -381 0
-233 -381 0
-234 -381 0
-239 -381 0
246 -381 0
-247 -381 0
-248 -381 0
-252 -381 0
-258 -381 0
-260 -381 0
-267 -381 0
-271 -381 0
-272 -381 0
274 -381 0
-302 -381 0
316 -381 0
-318 -381 0
-326 -381 0
340 -381 0
380 -382 0
381 -382 0
382 -383 0
201 -383 0
32 -384 0
-34 -384 0
-35 -384 0
42 -384 0
44 -384 0
-51 -384 0
-53 -384 0
55 -384 0
66 -384 0
-69 -384 0
-75 -384 0
77 -384 0
-89 -384 0
-90 -384 0
-93 -384 0
-95 -384 0
96 -384 0
100 -384 0
-103 -384 0
-122 -384 0
-123 -384 0
124 -384 0
-130 -384 0
-131 -384 0
132 -384 0
-139 -384 0
143 -384 0
-145 -384 0
-146 -384 0
149 -384 0
-151 -384 0
153 -384 0
-167 -384 0
168 -384 0
-170 -384 0
-173 -384 0
-175 -384 0
177 -384 0
180 -384 0
-184 -384 0
-193 -384 0
194 -384 0
-195 -384 0
-199 -384 0
206 -384 0
-207 -384 0
210 -384 0
213 -384 0
-214 -384 0
-217 -384 0
219 -384 0
-221 -384 0
-224 -384 0
-227 -384 0
231 -384 0
-233 -384 0
-234 -384 0
239 -384 0
-247 -384 0
248 -384 0
-252 -384 0
-258 -384 0
260 -384 0
-263 -384 0
266 -384 0
-267 -384 0
-271 -384 0
272 -384 0
-274 -384 0
278 -384 0
-279 -384 0
-280 -384 0
-286 -384 0
-287 -384 0
291 -384 0
-302 -384 0
-303 -384 0
305 -384 0
-308 -384 0
-310 -384 0
313 -384 0
-316 -384 0
318 -384 0
324 -384 0
-326 -384 0
-327 -384 0
329 -384 0
-332 -384 0
-334 -384 0
337 -384 0
384 -385 0
88 -385 0
-33 -386 0
-40 -386 0
-47 -386 0
-58 -386 0
-60 -386 0
-74 -386 0
-87 -386 0
-101 -386 0
-107 -386 0
108 -386 0
-109 -386 0
-156 -386 0
-157 -386 0
-226 -386 0
-246 -386 0
-340 -386 0
385 -387 0
386 -387 0
387 -388 0
61 -388 0
-32 -389 0
33 -389 0
-34 -389 0
-35 -389 0
39 -389 0
-42 -389 0
-47 -389 0
49 -389 0
-53 -389 0
55 -389 0
-74 -389 0
75 -389 0
-77 -389 0
89 -389 0
-90 -389 0
93 -389 0
-95 -389 0
-96 -389 0
-100 -389 0
-101 -389 0
-103 -389 0
104 -389 0
-107 -389 0
108 -389 0
-109 -389 0
122 -389 0
-123 -389 0
-124 -389 0
-130 -389 0
131 -389 0
-132 -389 0
-139 -389 0
143 -389 0
-145 -389 0
146 -389 0
-151 -389 0
-153 -389 0
-157 -389 0
159 -389 0
-167 -389 0
172 -389 0
-173 -389 0
175 -389 0
-193 -389 0
194 -389 0
-195 -389 0
-199 -389 0
200 -389 0
-206 -389 0
-213 -389 0
-214 -389 0
217 -389 0
-221 -389 0
-224 -389 0
225 -389 0
234 -389 0
-239 -389 0
248 -389 0
-252 -389 0
258 -389 0
-260 -389 0
-263 -389 0
-266 -389 0
267 -389 0
-272 -389 0
-274 -389 0
277 -389 0
278 -389 0
-279 -389 0
-280 -389 0
-286 -389 0
287 -389 0
-291 -389 0
-302 -389 0
303 -389 0
308 -389 0
-310 -389 0
316 -389 0
-318 -389 0
-326 -389 0
327 -389 0
332 -389 0
-334 -389 0
389 -390 0
340 -390 0
-44 -391 0
-51 -391 0
-60 -391 0
66 -391 0
-69 -391 0
-207 -391 0
210 -391 0
-247 -391 0
390 -392 0
391 -392 0
392 -393 0
58 -393 0
-40 -394 0
-87 -394 0
-156 -394 0
-170 -394 0
-177 -394 0
-180 -394 0
184 -394 0
-219 -394 0
-227 -394 0
-231 -394 0
-233 -394 0
-246 -394 0
-271 -394 0
393 -395 0
394 -395 0
395 -396 0
226 -396 0
-32 -397 0
-33 -397 0
34 -397 0
-35 -397 0
-40 -397 0
42 -397 0
-44 -397 0
47 -397 0
-51 -397 0
53 -397 0
-55 -397 0
-60 -397 0
66 -397 0
-69 -397 0
-74 -397 0
-75 -397 0
77 -397 0
87 -397 0
-89 -397 0
-90 -397 0
93 -397 0
-95 -397 0
-96 -397 0
-100 -397 0
-101 -397 0
103 -397 0
-107 -397 0
-108 -397 0
109 -397 0
-122 -397 0
123 -397 0
-124 -397 0
-130 -397 0
-131 -397 0
132 -397 0
-139 -397 0
-143 -397 0
144 -397 0
-145 -397 0
146 -397 0
-151 -397 0
-153 -397 0
156 -397 0
-157 -397 0
167 -397 0
-170 -397 0
173 -397 0
-175 -397 0
-177 -397 0
-180 -397 0
184 -397 0
-193 -397 0
-194 -397 0
195 -397 0
-199 -397 0
206 -397 0
-207 -397 0
210 -397 0
-213 -397 0
-214 -397 0
217 -397 0
-219 -397 0
221 -397 0
-224 -397 0
227 -397 0
-231 -397 0
-233 -397 0
-234 -397 0
239 -397 0
246 -397 0
-247 -397 0
-248 -397 0
-252 -397 0
-258 -397 0
259 -397 0
-260 -397 0
-263 -397 0
-266 -397 0
267 -397 0
271 -397 0
-272 -397 0
-274 -397 0
-278 -397 0
279 -397 0
-280 -397 0
-286 -397 0
-287 -397 0
291 -397 0
-302 -397 0
-303 -397 0
304 -397 0
-308 -397 0
-310 -397 0
312 -397 0
-316 -397 0
-318 -397 0
320 -397 0
322 -397 0
-326 -397 0
-327 -397 0
330 -397 0
-332 -397 0
-334 -397 0
338 -397 0
-340 -397 0
397 -398 0
58 -398 0
34 -399 0
-35 -399 0
-55 -399 0
56 -399 0
-74 -399 0
76 -399 0
87 -399 0
-89 -399 0
100 -399 0
-101 -399 0
-103 -399 0
-122 -399 0
123 -399 0
-124 -399 0
129 -399 0
-130 -399 0
-131 -399 0
-132 -399 0
145 -399 0
151 -399 0
167 -399 0
-170 -399 0
-173 -399 0
177 -399 0
186 -399 0
193 -399 0
-194 -399 0
-199 -399 0
-214 -399 0
-217 -399 0
218 -399 0
221 -399 0
-224 -399 0
231 -399 0
-258 -399 0
260 -399 0
-263 -399 0
-266 -399 0
-267 -399 0
270 -399 0
-274 -399 0
280 -399 0
286 -399 0
-287 -399 0
-291 -399 0
-302 -399 0
303 -399 0
308 -399 0
-310 -399 0
316 -399 0
327 -399 0
332 -399 0
-334 -399 0
399 -400 0
271 -400 0
400 -401 0
-272 -401 0
401 -402 0
-318 -402 0
-32 -403 0
44 -403 0
-51 -403 0
-53 -403 0
60 -403 0
66 -403 0
-69 -403 0
-75 -403 0
-77 -403 0
-90 -403 0
-93 -403 0
95 -403 0
-96 -403 0
-107 -403 0
-108 -403 0
-109 -403 0
111 -403 0
-139 -403 0
-143 -403 0
-146 -403 0
153 -403 0
-157 -403 0
-175 -403 0
-180 -403 0
-195 -403 0
202 -403 0
-206 -403 0
-207 -403 0
210 -403 0
-213 -403 0
-219 -403 0
-227 -403 0
233 -403 0
-234 -403 0
-239 -403 0
247 -403 0
-248 -403 0
-252 -403 0
-278 -403 0
-279 -403 0
-326 -403 0
340 -403 0
402 -404 0
403 -404 0
404 -405 0
-33 -406 0
-42 -406 0
-47 -406 0
-184 -406 0
405 -407 0
406 -407 0
407 -408 0
40 -408 0
-156 -409 0
-246 -409 0
408 -410 0
409 -410 0
410 -411 0
-58 -411 0
398 411 -412 0
412 -413 0
-226 -413 0
396 413 -414 0
414 -415 0
-88 -415 0
415 -416 0
388 416 -417 0
417 -418 0
-201 -418 0
419 -420 0
-336 -422 0
423 -425 0
1 0
2 0
3 0
4 0
5 0
6 0
7 0
-8 0
-9 0
-10 0
-11 0
-12 0
-13 0
-14 0
-15 0
-16 0
-17 0
-18 0
-19 0
-20 0
-21 0
-22 0
-23 0
-24 0
-25 0
-26 0
-27 0
-28 0
-29 0
-30 0
-31 0
-36 0
-37 0
-38 0
-43 0
-46 0
-50 0
-52 0
-54 0
-57 0
-62 0
-64 0
-65 0
-67 0
-68 0
-70 0
-71 0
-72 0
-73 0
-78 0
-79 0
-80 0
-81 0
-82 0
-83 0
-84 0
-85 0
-86 0
-91 0
-92 0
-94 0
-98 0
-99 0
-102 0
-105 0
-106 0
-110 0
112 0
-113 0
-114 0
-115 0
-116 0
-117 0
-118 0
-119 0
-120 0
-121 0
-125 0
-126 0
-127 0
-128 0
-133 0
-134 0
-135 0
-136 0
-137 0
-138 0
-140 0
-141 0
-142 0
-147 0
-148 0
-150 0
-154 0
-155 0
-158 0
160 0
-161 0
-162 0
-163 0
-164 0
-165 0
-166 0
-169 0
-174 0
-176 0
-178 0
-182 0
-183 0
-187 0
-188 0
-189 0
-190 0
-191 0
-192 0
-196 0
-197 0
-198 0
-203 0
-204 0
-205 0
-208 0
-209 0
-211 0
-212 0
-215 0
-216 0
-220 0
-222 0
-223 0
-228 0
-229 0
-230 0
-236 0
-237 0
-238 0
-240 0
-241 0
-242 0
-243 0
-244 0
-245 0
-249 0
-250 0
-251 0
253 0
-254 0
-255 0
-256 0
-257 0
-261 0
-262 0
-265 0
-268 0
-269 0
-273 0
-275 0
-276 0
-281 0
-282 0
-283 0
-284 0
-288 0
-289 0
-290 0
-292 0
-293 0
-294 0
-295 0
-296 0
-297 0
298 0
-299 0
-300 0
-301 0
-307 0
-309 0
-314 0
-315 0
-317 0
-321 0
-325 0
-328 0
-333 0
-335 0
-339 0
-341 0
-342 0
-343 0
-424 425 0
-366 367 0
201 366 418 0
-109 344 397 0
-319 371 0
90 366 381 384 389 397 403 0
-66 366 381 384 391 397 403 0
-42 366 384 397 0
-363 364 0
-323 363 0
-185 344 0
173 360 363 381 384 389 399 0
-356 357 0
-193 363 399 0
310 363 379 384 389 397 399 0
-387 388 0
252 363 381 384 389 397 403 0
-401 402 0
-206 363 384 397 0
146 363 379 384 403 0
-139 363 379 0
334 363 379 384 389 397 399 0
124 356 363 389 397 399 0
-48 363 0
286 360 363 379 384 389 397 0
-231 360 384 399 0
280 356 379 384 389 397 0
224 360 384 389 397 399 0
-274 366 381 0
-93 389 397 0
-359 361 0
-272 360 384 0
-340 381 390 403 0
233 356 366 381 384 394 397 0
-219 356 384 0
109 356 363 381 386 389 403 0
-202 403 0
-171 356 0
53 356 363 379 384 389 403 0
-51 356 363 379 0
-271 355 397 400 0
-345 347 0
-354 355 0
-184 394 397 0
-280 344 363 399 0
-247 363 403 0
274 353 360 384 389 397 399 0
-376 377 0
-225 389 0
-234 356 389 0
272 353 369 381 389 397 401 0
340 376 386 397 0
193 344 360 381 384 389 397 0
-101 356 363 0
226 353 360 381 386 413 0
180 353 366 394 397 403 0
-88 381 385 0
-351 352 0
145 363 379 384 389 397 0
-393 395 0
-318 349 362 384 0
-108 386 389 0
-415 416 0
-358 359 0
316 349 360 369 384 397 0
-199 344 356 0
101 344 381 386 389 397 399 0
-194 384 389 0
-258 363 389 0
-360 361 0
-416 417 0
40 369 381 386 394 397 0
-361 362 0
-352 354 0
89 349 360 381 384 397 399 0
88 349 356 369 415 0
-181 366 0
-395 396 0
87 349 360 366 381 386 394 0
-180 360 381 384 0
35 366 381 384 389 397 399 0
77 349 356 381 389 403 0
-170 344 363 381 0
-210 366 381 384 391 397 403 0
327 348 360 364 384 397 0
184 344 360 369 381 384 406 0
-302 344 356 0
-87 397 399 0
-239 363 384 397 0
-132 363 384 397 0
-33 363 389 0
-75 356 389 0
167 344 356 366 381 384 389 0
-331 363 0
213 344 356 363 389 397 403 0
44 356 363 380 391 397 0
-398 412 0
93 344 356 363 381 384 403 0
-186 399 0
-355 375 0
219 344 366 381 394 397 403 0
-337 384 0
326 369 381 384 389 397 403 0
-368 370 0
-146 344 356 389 397 0
96 366 379 389 397 403 0
143 344 356 363 379 397 403 0
-175 363 389 0
-350 351 0
139 344 356 384 389 397 403 0
32 344 356 363 389 397 403 0
74 356 363 386 389 397 399 0
-167 397 399 0
131 344 363 379 384 397 399 0
227 360 366 381 384 394 403 0
-277 389 0
-124 344 379 384 0
-334 344 356 0
69 366 381 384 391 397 403 0
-348 350 0
-173 344 397 0
-304 397 0
302 363 381 384 389 397 399 0
-60 356 363 403 0
-89 366 389 0
-362 373 0
-195 379 397 0
332 349 360 363 384 397 0
122 344 381 384 397 399 0
157 344 381 386 389 397 403 0
-402 404 0
-365 367 0
-357 358 0
-100 344 384 399 0
51 344 384 391 397 403 0
-218 399 0
199 363 379 384 389 397 399 0
-107 356 363 381 0
-96 344 356 384 0
-291 363 384 397 0
207 366 381 384 391 397 403 0
-40 344 356 408 0
-381 382 0
107 344 386 389 397 403 0
-53 344 397 0
287 344 363 379 384 397 399 0
108 344 356 363 381 397 403 0
-201 344 356 383 0
318 372 381 389 397 402 0
234 344 363 381 384 397 403 0
-59 344 0
-390 392 0
263 363 384 389 397 399 0
177 344 363 381 394 397 0
-32 379 384 0
-74 344 381 0
279 344 360 363 384 389 403 0
-207 346 356 0
-410 411 0
-349 350 0
-287 356 389 0
248 344 356 363 381 397 403 0
-151 363 399 0
-353 354 0
-326 345 357 0
-303 379 389 399 0
60 344 381 386 391 397 0
-392 393 0
-177 356 384 399 0
-367 368 0
42 349 356 381 389 406 0
-226 366 396 0
-263 344 356 379 0
-310 344 356 0
132 344 356 379 389 399 0
-168 384 0
-145 344 356 399 0
-213 381 384 0
-384 385 0
-44 344 384 403 0
217 344 360 363 381 384 399 0
34 346 356 363 381 384 389 0
-77 363 384 397 0
-35 344 356 0
-320 397 0
-370 371 0
-129 399 0
194 344 356 366 381 397 399 0
-95 363 403 0
-316 381 389 399 0
95 344 356 381 384 389 397 0
75 344 363 381 384 397 403 0
33 344 356 379 386 397 406 0
-389 390 0
-322 397 0
206 344 356 381 389 403 0
-369 370 0
-324 384 0
-403 404 0
-214 344 356 363 0
-347 348 0
-144 397 0
-224 344 363 379 0
-122 356 363 389 0
-332 379 389 399 0
214 381 384 389 397 399 0
123 344 356 363 381 384 389 0
-227 344 397 0
231 344 366 381 394 397 0
-412 413 0
-233 344 403 0
-285 379 0
-278 356 384 389 0
239 344 356 381 389 403 0
-286 344 399 0
247 344 356 381 384 391 397 0
-130 344 379 0
-252 344 356 0
-69 346 356 0
260 344 356 366 381 389 397 0
-267 344 356 389 397 0
-414 415 0
-346 347 0
-235 379 0
55 346 356 363 381 397 399 0
156 356 363 386 394 409 0
-45 356 0
47 344 356 363 386 389 406 0
-419 420 0
103 344 356 366 384 389 399 0
-344 345 0
-157 356 363 0
170 356 384 394 397 399 0
58 344 356 363 381 386 411 0
-159 389 0
195 346 356 363 384 389 403 0
-103 379 397 0
-364 365 0
210 346 356 0
-217 389 397 0
-371 372 0
-372 373 0
130 356 363 384 389 397 399 0
-308 379 389 399 0
-373 374 0
221 344 356 363 379 384 389 0
-375 377 0
-306 363 0
153 376 381 389 397 0
-377 378 0
246 376 386 394 409 0
-131 356 389 0
308 376 384 397 0
-421 422 0
-221 397 399 0
-47 379 397 0
-97 379 0
-152 379 0
-179 379 0
-266 379 384 0
-279 379 397 0
-327 379 389 399 0
-379 380 0
-380 382 0
-41 381 0
-63 381 0
-232 381 0
-394 395 0
-246 381 397 0
-383 419 0
-55 384 389 0
-143 384 389 0
-149 384 0
-153 384 403 0
-248 384 389 0
-260 384 399 0
-329 384 0
-385 387 0
-386 387 0
303 344 356 363 384 397 0
-61 388 0
-388 417 0
-39 389 0
291 344 356 379 389 399 0
-49 389 0
-104 389 0
-172 389 0
37 344 360 368 420 0
-391 392 0
-58 393 398 0
-156 344 381 397 0
-396 414 0
-76 399 0
-34 397 399 0
-123 397 399 0
-259 397 0
-330 397 0
-374 375 0
-338 397 0
175 346 356 379 384 397 403 0
-397 398 0
-56 399 0
-399 400 0
-270 399 0
-200 389 0
-400 401 0
-111 403 0
-404 405 0
-90 351 356 0
-405 407 0
-406 407 0
151 344 356 379 384 389 397 0
-407 408 0
-408 410 0
-409 410 0
-411 412 0
-413 414 0
271 374 381 384 394 0
-417 418 0
100 356 363 381 389 397 0
-418 419 0
-420 421 0
-264 363 0
278 353 363 379 397 403 0
66 346 356 0
-312 397 0
-313 384 0
258 344 360 381 384 397 399 0
-305 384 0
-382 383 0
266 344 356 363 389 397 399 0
267 366 381 384 399 0
-311 363 0
256 424 0
